NAME : netgen20-2-8
COMMENT : Generated using the function generateClusteredNetwork from the R-package netgen (Bossek,2015) - Number of clusters: 2
TYPE : TSP
DIMENSION : 20
EDGE_WEIGHT_TYPE : EUC_2D
NODE_COORD_SECTION
1 68.2692049639 56.5792188181
2 66.7442177855 73.1867929247
3 62.3471170828 64.8570920048
4 64.6964892723 59.8701696335
5 77.9457335857 66.2274227655
6 71.4363500393 66.4015187228
7 60.7211568233 62.1497817847
8 75.7233772754 68.421561742
9 62.7765210768 71.3821257749
10 62.3310552465 59.0442811102
11 28.5059739729 37.7464476965
12 33.5880121843 43.1769740123
13 33.7543928276 53.0567452946
14 52.6453087155 48.8719383679
15 26.3493584898 39.9977138604
16 33.0807097902 46.5629458435
17 38.5834582851 48.3298650912
18 44.2728567688 53.2911729523
19 38.6819197868 51.913555315
20 32.4745582493 43.5019275577
EOF
